\ENCODING=ISO-8859-1
\Problem name: IloCplex

Minimize
 obj1: 27 x_1_0 + 26 x_2_0 + 26 x_3_0 + 11 x_4_0 + 27 x_0_1 + 26 x_2_1
       + 26 x_3_1 + 27 x_4_1 + 26 x_0_2 + 26 x_1_2 + 26 x_3_2 + 16 x_4_2
       + 26 x_0_3 + 26 x_1_3 + 26 x_2_3 + 23 x_4_3 + 11 x_0_4 + 27 x_1_4
       + 16 x_2_4 + 23 x_3_4
Subject To
 inbound_0:  x_0_0 + x_1_0 + x_2_0 + x_3_0 + x_4_0  = 1
 inbound_1:  x_0_1 + x_1_1 + x_2_1 + x_3_1 + x_4_1  = 1
 inbound_2:  x_0_2 + x_1_2 + x_2_2 + x_3_2 + x_4_2  = 1
 inbound_3:  x_0_3 + x_1_3 + x_2_3 + x_3_3 + x_4_3  = 1
 inbound_4:  x_0_4 + x_1_4 + x_2_4 + x_3_4 + x_4_4  = 1
 outbound_0: x_0_0 + x_0_1 + x_0_2 + x_0_3 + x_0_4  = 1
 outbound_1: x_1_0 + x_1_1 + x_1_2 + x_1_3 + x_1_4  = 1
 outbound_2: x_2_0 + x_2_1 + x_2_2 + x_2_3 + x_2_4  = 1
 outbound_3: x_3_0 + x_3_1 + x_3_2 + x_3_3 + x_3_4  = 1
 outbound_4: x_4_0 + x_4_1 + x_4_2 + x_4_3 + x_4_4  = 1
 mtz_1_1:    5 x_1_1 <= 4
 mtz_1_2:    5 x_1_2 + t_1 - t_2 <= 4
 mtz_1_3:    5 x_1_3 + t_1 - t_3 <= 4
 mtz_1_4:    5 x_1_4 + t_1 - t_4 <= 4
 mtz_2_1:    5 x_2_1 - t_1 + t_2 <= 4
 mtz_2_2:    5 x_2_2 <= 4
 mtz_2_3:    5 x_2_3 + t_2 - t_3 <= 4
 mtz_2_4:    5 x_2_4 + t_2 - t_4 <= 4
 mtz_3_1:    5 x_3_1 - t_1 + t_3 <= 4
 mtz_3_2:    5 x_3_2 - t_2 + t_3 <= 4
 mtz_3_3:    5 x_3_3 <= 4
 mtz_3_4:    5 x_3_4 + t_3 - t_4 <= 4
 mtz_4_1:    5 x_4_1 - t_1 + t_4 <= 4
 mtz_4_2:    5 x_4_2 - t_2 + t_4 <= 4
 mtz_4_3:    5 x_4_3 - t_3 + t_4 <= 4
 mtz_4_4:    5 x_4_4 <= 4
Bounds
 0 <= x_0_0 <= 1
 0 <= x_1_0 <= 1
 0 <= x_2_0 <= 1
 0 <= x_3_0 <= 1
 0 <= x_4_0 <= 1
 0 <= x_0_1 <= 1
 0 <= x_1_1 <= 1
 0 <= x_2_1 <= 1
 0 <= x_3_1 <= 1
 0 <= x_4_1 <= 1
 0 <= x_0_2 <= 1
 0 <= x_1_2 <= 1
 0 <= x_2_2 <= 1
 0 <= x_3_2 <= 1
 0 <= x_4_2 <= 1
 0 <= x_0_3 <= 1
 0 <= x_1_3 <= 1
 0 <= x_2_3 <= 1
 0 <= x_3_3 <= 1
 0 <= x_4_3 <= 1
 0 <= x_0_4 <= 1
 0 <= x_1_4 <= 1
 0 <= x_2_4 <= 1
 0 <= x_3_4 <= 1
 0 <= x_4_4 <= 1
 2 <= t_1 <= 5
 2 <= t_2 <= 5
 2 <= t_3 <= 5
 2 <= t_4 <= 5
Binaries
 x_0_0  x_1_0  x_2_0  x_3_0  x_4_0  x_0_1  x_1_1  x_2_1  x_3_1  x_4_1  x_0_2 
 x_1_2  x_2_2  x_3_2  x_4_2  x_0_3  x_1_3  x_2_3  x_3_3  x_4_3  x_0_4  x_1_4 
 x_2_4  x_3_4  x_4_4 
Generals
 t_1  t_2  t_3  t_4 
End
